benchmarks/VRPTW/TSPTW/solution/n40w60.003.txt.solution
1 7 19 13 37 11 9 36 28 35 29 17 18 20 40 27 34 23 26 24 5 2 25 31 39 15 38 10 33 32 21 8 16 3 14 6 30 4 22 12 41 
408
